N = 720;
M = 1794;
Edge_Start = [1, 1, 2, 3, 3, 4, 5, 5, 6, 7, 8, 9, 9, 10, 11, 11, 12, 13, 13, 15, 15, 16, 17, 17, 19, 20, 21, 22, 23, 23, 24, 25, 25, 26, 27, 27, 28, 29, 29, 30, 31, 31, 32, 33, 33, 35, 35, 36, 37, 38, 39, 40, 41, 41, 43, 43, 44, 45, 45, 46, 47, 47, 48, 49, 51, 51, 52, 53, 54, 55, 56, 57, 58, 59, 59, 61, 61, 62, 63, 63, 64, 65, 65, 66, 67, 68, 69, 69, 70, 71, 71, 73, 73, 74, 75, 76, 77, 78, 78, 79, 80, 80, 81, 82, 83, 84, 85, 86, 86, 87, 88, 88, 89, 90, 91, 92, 93, 94, 96, 98, 98, 99, 100, 100, 102, 103, 104, 104, 105, 106, 106, 107, 108, 109, 110, 110, 111, 112, 112, 114, 115, 115, 116, 117, 117, 118, 119, 119, 121, 121, 123, 123, 124, 125, 125, 126, 127, 127, 128, 129, 129, 130, 131, 131, 132, 133, 134, 135, 136, 137, 137, 138, 139, 140, 141, 142, 143, 143, 144, 145, 145, 146, 147, 147, 148, 149, 150, 151, 152, 152, 153, 154, 154, 155, 156, 156, 157, 158, 158, 159, 160, 161, 162, 163, 164, 164, 166, 167, 168, 168, 169, 170, 170, 171, 172, 172, 173, 174, 174, 176, 176, 178, 178, 179, 180, 180, 181, 182, 182, 183, 184, 184, 185, 186, 187, 188, 188, 190, 191, 191, 192, 193, 193, 194, 195, 195, 196, 197, 197, 198, 199, 199, 200, 201, 201, 202, 203, 203, 204, 205, 205, 206, 207, 207, 208, 209, 209, 210, 211, 211, 212, 213, 213, 214, 215, 216, 217, 217, 219, 219, 221, 221, 222, 223, 223, 225, 225, 226, 227, 228, 228, 230, 230, 231, 232, 232, 233, 234, 234, 235, 236, 236, 237, 238, 238, 239, 240, 240, 241, 242, 242, 243, 244, 244, 245, 246, 246, 247, 248, 248, 249, 250, 251, 252, 253, 254, 254, 255, 256, 257, 258, 258, 259, 260, 260, 261, 262, 263, 264, 264, 266, 267, 267, 269, 270, 271, 271, 272, 273, 274, 275, 275, 276, 277, 277, 278, 279, 280, 281, 281, 282, 283, 284, 285, 285, 286, 287, 288, 289, 289, 291, 291, 292, 293, 293, 294, 295, 295, 296, 297, 297, 298, 299, 299, 300, 301, 301, 302, 304, 304, 305, 306, 306, 308, 308, 309, 310, 311, 312, 312, 313, 314, 315, 316, 316, 317, 318, 319, 320, 320, 321, 322, 322, 323, 324, 324, 325, 326, 326, 327, 328, 329, 330, 330, 331, 332, 332, 333, 334, 335, 336, 336, 337, 338, 339, 340, 340, 342, 343, 343, 344, 345, 345, 346, 347, 347, 348, 349, 349, 350, 351, 351, 352, 353, 353, 354, 355, 356, 357, 358, 359, 359, 360, 361, 361, 362, 363, 364, 365, 365, 366, 367, 368, 369, 369, 370, 371, 371, 372, 373, 373, 374, 376, 377, 377, 379, 380, 381, 382, 382, 383, 384, 385, 386, 386, 387, 388, 389, 390, 390, 391, 392, 392, 393, 394, 395, 396, 396, 397, 398, 399, 400, 401, 402, 402, 403, 404, 404, 405, 406, 406, 407, 408, 409, 410, 412, 412, 413, 414, 414, 415, 416, 416, 418, 419, 419, 420, 421, 421, 422, 423, 423, 425, 426, 427, 428, 429, 429, 430, 431, 432, 433, 433, 434, 435, 435, 436, 437, 437, 438, 439, 440, 441, 441, 442, 443, 443, 444, 445, 446, 447, 447, 449, 450, 451, 452, 453, 453, 454, 455, 456, 456, 458, 458, 459, 460, 460, 461, 462, 462, 463, 464, 464, 465, 466, 466, 467, 468, 469, 470, 471, 472, 472, 473, 474, 474, 475, 476, 476, 477, 478, 478, 479, 480, 481, 482, 483, 484, 484, 485, 486, 486, 487, 488, 488, 489, 490, 490, 491, 492, 492, 495, 495, 496, 497, 497, 498, 499, 500, 501, 501, 502, 503, 504, 505, 505, 506, 507, 507, 508, 509, 511, 511, 512, 513, 513, 514, 515, 517, 518, 519, 520, 521, 521, 522, 523, 524, 525, 526, 527, 527, 528, 529, 529, 530, 531, 532, 532, 533, 534, 534, 535, 536, 536, 537, 538, 538, 539, 540, 541, 542, 542, 543, 544, 546, 546, 548, 548, 549, 550, 550, 551, 553, 554, 554, 555, 556, 556, 557, 558, 560, 560, 561, 562, 562, 563, 564, 564, 565, 566, 566, 567, 568, 570, 571, 572, 573, 574, 575, 575, 577, 577, 578, 579, 579, 580, 581, 581, 582, 583, 584, 585, 585, 587, 587, 588, 589, 589, 590, 591, 591, 592, 593, 594, 595, 595, 596, 597, 597, 598, 599, 600, 601, 601, 602, 603, 603, 604, 605, 605, 606, 607, 608, 608, 609, 611, 612, 612, 613, 614, 616, 616, 617, 618, 618, 619, 620, 622, 622, 623, 624, 625, 626, 627, 628, 628, 629, 630, 630, 632, 632, 633, 634, 634, 635, 636, 636, 637, 638, 638, 639, 640, 641, 642, 642, 643, 644, 644, 646, 647, 647, 648, 649, 649, 650, 651, 651, 652, 653, 654, 655, 655, 656, 657, 658, 659, 659, 660, 661, 662, 663, 663, 664, 665, 665, 666, 667, 667, 668, 669, 669, 670, 671, 672, 673, 674, 675, 677, 677, 678, 679, 679, 680, 681, 682, 683, 684, 685, 686, 688, 689, 690, 691, 692, 693, 694, 695, 696, 697, 698, 699, 701, 702, 703, 704, 706, 707, 709, 710, 711, 712, 713, 714, 715, 717, 718, 719, 2, 38, 3, 4, 40, 5, 6, 42, 7, 8, 9, 10, 46, 11, 12, 48, 13, 14, 50, 16, 52, 17, 18, 54, 56, 21, 22, 23, 24, 60, 25, 26, 62, 27, 28, 64, 29, 30, 66, 31, 32, 68, 33, 34, 70, 36, 72, 37, 74, 39, 77, 41, 42, 79, 44, 81, 45, 46, 83, 47, 48, 85, 49, 87, 52, 89, 53, 54, 55, 93, 57, 58, 59, 60, 97, 62, 99, 63, 64, 101, 65, 66, 103, 67, 68, 69, 70, 107, 71, 72, 109, 74, 111, 75, 113, 77, 78, 79, 116, 80, 81, 118, 82, 120, 84, 85, 86, 87, 124, 88, 89, 126, 90, 91, 92, 130, 94, 95, 97, 99, 136, 100, 101, 138, 140, 104, 105, 142, 106, 107, 144, 108, 109, 110, 111, 148, 112, 113, 150, 115, 116, 153, 117, 118, 155, 119, 120, 157, 122, 159, 124, 161, 125, 126, 163, 127, 128, 165, 129, 130, 167, 131, 132, 169, 133, 171, 135, 136, 137, 138, 175, 139, 140, 141, 179, 143, 144, 181, 145, 146, 183, 147, 148, 185, 149, 187, 151, 189, 153, 190, 154, 155, 192, 156, 157, 194, 158, 159, 196, 160, 161, 162, 163, 164, 165, 202, 167, 168, 169, 206, 170, 171, 208, 172, 173, 210, 174, 175, 212, 177, 214, 179, 216, 180, 181, 218, 182, 183, 220, 184, 185, 222, 186, 224, 188, 189, 226, 191, 192, 229, 193, 194, 231, 195, 196, 233, 197, 198, 235, 199, 200, 237, 201, 202, 239, 203, 204, 241, 205, 206, 243, 207, 208, 245, 209, 210, 247, 211, 212, 249, 213, 214, 251, 215, 253, 217, 218, 255, 220, 257, 222, 259, 223, 224, 261, 226, 263, 227, 265, 229, 266, 231, 268, 232, 233, 270, 234, 235, 272, 236, 237, 274, 238, 239, 276, 240, 241, 278, 242, 243, 280, 244, 245, 282, 246, 247, 284, 248, 249, 286, 250, 251, 252, 253, 254, 255, 292, 256, 294, 258, 259, 296, 260, 261, 298, 262, 300, 264, 265, 302, 267, 268, 305, 307, 271, 272, 309, 273, 311, 275, 276, 313, 277, 278, 315, 279, 280, 281, 282, 319, 283, 321, 285, 286, 323, 287, 325, 289, 290, 327, 292, 329, 293, 294, 331, 295, 296, 333, 297, 298, 335, 299, 300, 337, 301, 302, 339, 303, 305, 342, 306, 307, 344, 309, 346, 310, 311, 312, 313, 350, 314, 352, 316, 317, 354, 318, 356, 320, 321, 358, 322, 323, 360, 324, 325, 362, 326, 327, 364, 328, 366, 330, 331, 368, 332, 333, 370, 334, 335, 336, 337, 374, 338, 339, 340, 341, 378, 343, 344, 381, 345, 346, 383, 347, 348, 385, 349, 350, 387, 351, 352, 389, 353, 354, 391, 355, 356, 357, 358, 359, 360, 397, 361, 362, 399, 363, 401, 365, 366, 403, 367, 368, 369, 370, 407, 371, 372, 409, 373, 374, 411, 375, 377, 378, 415, 417, 381, 382, 383, 420, 384, 422, 386, 387, 424, 388, 389, 390, 391, 428, 392, 393, 430, 394, 395, 396, 397, 434, 398, 436, 400, 438, 402, 403, 440, 404, 405, 442, 406, 407, 444, 408, 409, 410, 411, 413, 450, 414, 415, 452, 416, 417, 454, 419, 420, 457, 421, 422, 459, 423, 424, 461, 463, 427, 428, 429, 430, 467, 431, 432, 433, 434, 471, 435, 436, 473, 437, 438, 475, 439, 440, 441, 442, 479, 443, 444, 481, 445, 446, 447, 448, 485, 487, 451, 489, 453, 454, 491, 455, 493, 457, 494, 459, 496, 460, 461, 498, 462, 463, 500, 464, 465, 502, 466, 467, 504, 468, 469, 470, 471, 472, 473, 510, 474, 475, 512, 476, 477, 514, 478, 479, 516, 480, 481, 482, 520, 484, 485, 522, 486, 487, 524, 488, 489, 526, 490, 491, 528, 492, 493, 530, 496, 533, 497, 498, 535, 499, 500, 501, 502, 539, 503, 504, 505, 506, 543, 507, 508, 545, 509, 510, 512, 549, 513, 514, 551, 515, 553, 518, 519, 557, 521, 522, 559, 523, 561, 525, 563, 527, 528, 565, 529, 530, 567, 531, 569, 533, 570, 534, 535, 572, 536, 537, 574, 538, 539, 576, 540, 578, 542, 543, 580, 544, 545, 547, 584, 549, 586, 550, 551, 588, 552, 554, 555, 592, 556, 557, 594, 558, 559, 561, 598, 562, 563, 600, 564, 565, 602, 566, 567, 604, 568, 569, 571, 609, 573, 574, 575, 576, 613, 578, 615, 579, 580, 617, 581, 582, 619, 583, 621, 585, 586, 623, 588, 625, 589, 590, 627, 591, 592, 629, 593, 631, 595, 596, 633, 597, 598, 635, 599, 600, 601, 602, 639, 603, 604, 641, 605, 606, 643, 607, 645, 609, 646, 610, 612, 613, 650, 614, 615, 617, 654, 618, 619, 656, 620, 621, 623, 660, 624, 625, 626, 627, 628, 629, 666, 630, 631, 668, 633, 670, 634, 635, 672, 636, 637, 674, 638, 639, 676, 640, 678, 642, 643, 680, 644, 645, 682, 647, 648, 684, 649, 650, 686, 651, 652, 688, 653, 654, 655, 656, 692, 657, 658, 659, 660, 696, 661, 698, 663, 664, 700, 665, 666, 702, 667, 668, 704, 669, 670, 706, 671, 708, 673, 710, 675, 712, 678, 714, 679, 680, 716, 681, 682, 683, 720, 685, 686, 687, 689, 690, 691, 692, 693, 694, 695, 696, 697, 698, 699, 700, 702, 703, 704, 705, 707, 708, 710, 711, 712, 713, 714, 715, 716, 718, 719, 720];
Edge_End = [2, 38, 3, 4, 40, 5, 6, 42, 7, 8, 9, 10, 46, 11, 12, 48, 13, 14, 50, 16, 52, 17, 18, 54, 56, 21, 22, 23, 24, 60, 25, 26, 62, 27, 28, 64, 29, 30, 66, 31, 32, 68, 33, 34, 70, 36, 72, 37, 74, 39, 77, 41, 42, 79, 44, 81, 45, 46, 83, 47, 48, 85, 49, 87, 52, 89, 53, 54, 55, 93, 57, 58, 59, 60, 97, 62, 99, 63, 64, 101, 65, 66, 103, 67, 68, 69, 70, 107, 71, 72, 109, 74, 111, 75, 113, 77, 78, 79, 116, 80, 81, 118, 82, 120, 84, 85, 86, 87, 124, 88, 89, 126, 90, 91, 92, 130, 94, 95, 97, 99, 136, 100, 101, 138, 140, 104, 105, 142, 106, 107, 144, 108, 109, 110, 111, 148, 112, 113, 150, 115, 116, 153, 117, 118, 155, 119, 120, 157, 122, 159, 124, 161, 125, 126, 163, 127, 128, 165, 129, 130, 167, 131, 132, 169, 133, 171, 135, 136, 137, 138, 175, 139, 140, 141, 179, 143, 144, 181, 145, 146, 183, 147, 148, 185, 149, 187, 151, 189, 153, 190, 154, 155, 192, 156, 157, 194, 158, 159, 196, 160, 161, 162, 163, 164, 165, 202, 167, 168, 169, 206, 170, 171, 208, 172, 173, 210, 174, 175, 212, 177, 214, 179, 216, 180, 181, 218, 182, 183, 220, 184, 185, 222, 186, 224, 188, 189, 226, 191, 192, 229, 193, 194, 231, 195, 196, 233, 197, 198, 235, 199, 200, 237, 201, 202, 239, 203, 204, 241, 205, 206, 243, 207, 208, 245, 209, 210, 247, 211, 212, 249, 213, 214, 251, 215, 253, 217, 218, 255, 220, 257, 222, 259, 223, 224, 261, 226, 263, 227, 265, 229, 266, 231, 268, 232, 233, 270, 234, 235, 272, 236, 237, 274, 238, 239, 276, 240, 241, 278, 242, 243, 280, 244, 245, 282, 246, 247, 284, 248, 249, 286, 250, 251, 252, 253, 254, 255, 292, 256, 294, 258, 259, 296, 260, 261, 298, 262, 300, 264, 265, 302, 267, 268, 305, 307, 271, 272, 309, 273, 311, 275, 276, 313, 277, 278, 315, 279, 280, 281, 282, 319, 283, 321, 285, 286, 323, 287, 325, 289, 290, 327, 292, 329, 293, 294, 331, 295, 296, 333, 297, 298, 335, 299, 300, 337, 301, 302, 339, 303, 305, 342, 306, 307, 344, 309, 346, 310, 311, 312, 313, 350, 314, 352, 316, 317, 354, 318, 356, 320, 321, 358, 322, 323, 360, 324, 325, 362, 326, 327, 364, 328, 366, 330, 331, 368, 332, 333, 370, 334, 335, 336, 337, 374, 338, 339, 340, 341, 378, 343, 344, 381, 345, 346, 383, 347, 348, 385, 349, 350, 387, 351, 352, 389, 353, 354, 391, 355, 356, 357, 358, 359, 360, 397, 361, 362, 399, 363, 401, 365, 366, 403, 367, 368, 369, 370, 407, 371, 372, 409, 373, 374, 411, 375, 377, 378, 415, 417, 381, 382, 383, 420, 384, 422, 386, 387, 424, 388, 389, 390, 391, 428, 392, 393, 430, 394, 395, 396, 397, 434, 398, 436, 400, 438, 402, 403, 440, 404, 405, 442, 406, 407, 444, 408, 409, 410, 411, 413, 450, 414, 415, 452, 416, 417, 454, 419, 420, 457, 421, 422, 459, 423, 424, 461, 463, 427, 428, 429, 430, 467, 431, 432, 433, 434, 471, 435, 436, 473, 437, 438, 475, 439, 440, 441, 442, 479, 443, 444, 481, 445, 446, 447, 448, 485, 487, 451, 489, 453, 454, 491, 455, 493, 457, 494, 459, 496, 460, 461, 498, 462, 463, 500, 464, 465, 502, 466, 467, 504, 468, 469, 470, 471, 472, 473, 510, 474, 475, 512, 476, 477, 514, 478, 479, 516, 480, 481, 482, 520, 484, 485, 522, 486, 487, 524, 488, 489, 526, 490, 491, 528, 492, 493, 530, 496, 533, 497, 498, 535, 499, 500, 501, 502, 539, 503, 504, 505, 506, 543, 507, 508, 545, 509, 510, 512, 549, 513, 514, 551, 515, 553, 518, 519, 557, 521, 522, 559, 523, 561, 525, 563, 527, 528, 565, 529, 530, 567, 531, 569, 533, 570, 534, 535, 572, 536, 537, 574, 538, 539, 576, 540, 578, 542, 543, 580, 544, 545, 547, 584, 549, 586, 550, 551, 588, 552, 554, 555, 592, 556, 557, 594, 558, 559, 561, 598, 562, 563, 600, 564, 565, 602, 566, 567, 604, 568, 569, 571, 609, 573, 574, 575, 576, 613, 578, 615, 579, 580, 617, 581, 582, 619, 583, 621, 585, 586, 623, 588, 625, 589, 590, 627, 591, 592, 629, 593, 631, 595, 596, 633, 597, 598, 635, 599, 600, 601, 602, 639, 603, 604, 641, 605, 606, 643, 607, 645, 609, 646, 610, 612, 613, 650, 614, 615, 617, 654, 618, 619, 656, 620, 621, 623, 660, 624, 625, 626, 627, 628, 629, 666, 630, 631, 668, 633, 670, 634, 635, 672, 636, 637, 674, 638, 639, 676, 640, 678, 642, 643, 680, 644, 645, 682, 647, 648, 684, 649, 650, 686, 651, 652, 688, 653, 654, 655, 656, 692, 657, 658, 659, 660, 696, 661, 698, 663, 664, 700, 665, 666, 702, 667, 668, 704, 669, 670, 706, 671, 708, 673, 710, 675, 712, 678, 714, 679, 680, 716, 681, 682, 683, 720, 685, 686, 687, 689, 690, 691, 692, 693, 694, 695, 696, 697, 698, 699, 700, 702, 703, 704, 705, 707, 708, 710, 711, 712, 713, 714, 715, 716, 718, 719, 720, 1, 1, 2, 3, 3, 4, 5, 5, 6, 7, 8, 9, 9, 10, 11, 11, 12, 13, 13, 15, 15, 16, 17, 17, 19, 20, 21, 22, 23, 23, 24, 25, 25, 26, 27, 27, 28, 29, 29, 30, 31, 31, 32, 33, 33, 35, 35, 36, 37, 38, 39, 40, 41, 41, 43, 43, 44, 45, 45, 46, 47, 47, 48, 49, 51, 51, 52, 53, 54, 55, 56, 57, 58, 59, 59, 61, 61, 62, 63, 63, 64, 65, 65, 66, 67, 68, 69, 69, 70, 71, 71, 73, 73, 74, 75, 76, 77, 78, 78, 79, 80, 80, 81, 82, 83, 84, 85, 86, 86, 87, 88, 88, 89, 90, 91, 92, 93, 94, 96, 98, 98, 99, 100, 100, 102, 103, 104, 104, 105, 106, 106, 107, 108, 109, 110, 110, 111, 112, 112, 114, 115, 115, 116, 117, 117, 118, 119, 119, 121, 121, 123, 123, 124, 125, 125, 126, 127, 127, 128, 129, 129, 130, 131, 131, 132, 133, 134, 135, 136, 137, 137, 138, 139, 140, 141, 142, 143, 143, 144, 145, 145, 146, 147, 147, 148, 149, 150, 151, 152, 152, 153, 154, 154, 155, 156, 156, 157, 158, 158, 159, 160, 161, 162, 163, 164, 164, 166, 167, 168, 168, 169, 170, 170, 171, 172, 172, 173, 174, 174, 176, 176, 178, 178, 179, 180, 180, 181, 182, 182, 183, 184, 184, 185, 186, 187, 188, 188, 190, 191, 191, 192, 193, 193, 194, 195, 195, 196, 197, 197, 198, 199, 199, 200, 201, 201, 202, 203, 203, 204, 205, 205, 206, 207, 207, 208, 209, 209, 210, 211, 211, 212, 213, 213, 214, 215, 216, 217, 217, 219, 219, 221, 221, 222, 223, 223, 225, 225, 226, 227, 228, 228, 230, 230, 231, 232, 232, 233, 234, 234, 235, 236, 236, 237, 238, 238, 239, 240, 240, 241, 242, 242, 243, 244, 244, 245, 246, 246, 247, 248, 248, 249, 250, 251, 252, 253, 254, 254, 255, 256, 257, 258, 258, 259, 260, 260, 261, 262, 263, 264, 264, 266, 267, 267, 269, 270, 271, 271, 272, 273, 274, 275, 275, 276, 277, 277, 278, 279, 280, 281, 281, 282, 283, 284, 285, 285, 286, 287, 288, 289, 289, 291, 291, 292, 293, 293, 294, 295, 295, 296, 297, 297, 298, 299, 299, 300, 301, 301, 302, 304, 304, 305, 306, 306, 308, 308, 309, 310, 311, 312, 312, 313, 314, 315, 316, 316, 317, 318, 319, 320, 320, 321, 322, 322, 323, 324, 324, 325, 326, 326, 327, 328, 329, 330, 330, 331, 332, 332, 333, 334, 335, 336, 336, 337, 338, 339, 340, 340, 342, 343, 343, 344, 345, 345, 346, 347, 347, 348, 349, 349, 350, 351, 351, 352, 353, 353, 354, 355, 356, 357, 358, 359, 359, 360, 361, 361, 362, 363, 364, 365, 365, 366, 367, 368, 369, 369, 370, 371, 371, 372, 373, 373, 374, 376, 377, 377, 379, 380, 381, 382, 382, 383, 384, 385, 386, 386, 387, 388, 389, 390, 390, 391, 392, 392, 393, 394, 395, 396, 396, 397, 398, 399, 400, 401, 402, 402, 403, 404, 404, 405, 406, 406, 407, 408, 409, 410, 412, 412, 413, 414, 414, 415, 416, 416, 418, 419, 419, 420, 421, 421, 422, 423, 423, 425, 426, 427, 428, 429, 429, 430, 431, 432, 433, 433, 434, 435, 435, 436, 437, 437, 438, 439, 440, 441, 441, 442, 443, 443, 444, 445, 446, 447, 447, 449, 450, 451, 452, 453, 453, 454, 455, 456, 456, 458, 458, 459, 460, 460, 461, 462, 462, 463, 464, 464, 465, 466, 466, 467, 468, 469, 470, 471, 472, 472, 473, 474, 474, 475, 476, 476, 477, 478, 478, 479, 480, 481, 482, 483, 484, 484, 485, 486, 486, 487, 488, 488, 489, 490, 490, 491, 492, 492, 495, 495, 496, 497, 497, 498, 499, 500, 501, 501, 502, 503, 504, 505, 505, 506, 507, 507, 508, 509, 511, 511, 512, 513, 513, 514, 515, 517, 518, 519, 520, 521, 521, 522, 523, 524, 525, 526, 527, 527, 528, 529, 529, 530, 531, 532, 532, 533, 534, 534, 535, 536, 536, 537, 538, 538, 539, 540, 541, 542, 542, 543, 544, 546, 546, 548, 548, 549, 550, 550, 551, 553, 554, 554, 555, 556, 556, 557, 558, 560, 560, 561, 562, 562, 563, 564, 564, 565, 566, 566, 567, 568, 570, 571, 572, 573, 574, 575, 575, 577, 577, 578, 579, 579, 580, 581, 581, 582, 583, 584, 585, 585, 587, 587, 588, 589, 589, 590, 591, 591, 592, 593, 594, 595, 595, 596, 597, 597, 598, 599, 600, 601, 601, 602, 603, 603, 604, 605, 605, 606, 607, 608, 608, 609, 611, 612, 612, 613, 614, 616, 616, 617, 618, 618, 619, 620, 622, 622, 623, 624, 625, 626, 627, 628, 628, 629, 630, 630, 632, 632, 633, 634, 634, 635, 636, 636, 637, 638, 638, 639, 640, 641, 642, 642, 643, 644, 644, 646, 647, 647, 648, 649, 649, 650, 651, 651, 652, 653, 654, 655, 655, 656, 657, 658, 659, 659, 660, 661, 662, 663, 663, 664, 665, 665, 666, 667, 667, 668, 669, 669, 670, 671, 672, 673, 674, 675, 677, 677, 678, 679, 679, 680, 681, 682, 683, 684, 685, 686, 688, 689, 690, 691, 692, 693, 694, 695, 696, 697, 698, 699, 701, 702, 703, 704, 706, 707, 709, 710, 711, 712, 713, 714, 715, 717, 718, 719];
L = [1, 1, 1, 1, 1, 1, 1, 1, 1, 1, 1, 1, 1, 1, 1, 1, 1, 1, 1, 1, 1, 1, 1, 1, 1, 1, 1, 1, 1, 1, 1, 1, 1, 1, 1, 1, 1, 1, 1, 1, 1, 1, 1, 1, 1, 1, 1, 1, 1, 1, 1, 1, 1, 1, 1, 1, 1, 1, 1, 1, 1, 1, 1, 1, 1, 1, 1, 1, 1, 1, 1, 1, 1, 1, 1, 1, 1, 1, 1, 1, 1, 1, 1, 1, 1, 1, 1, 1, 1, 1, 1, 1, 1, 1, 1, 1, 1, 1, 1, 1, 1, 1, 1, 1, 1, 1, 1, 1, 1, 1, 1, 1, 1, 1, 1, 1, 1, 1, 1, 1, 1, 1, 1, 1, 1, 1, 1, 1, 1, 1, 1, 1, 1, 1, 1, 1, 1, 1, 1, 1, 1, 1, 1, 1, 1, 1, 1, 1, 1, 1, 1, 1, 1, 1, 1, 1, 1, 1, 1, 1, 1, 1, 1, 1, 1, 1, 1, 1, 1, 1, 1, 1, 1, 1, 1, 1, 1, 1, 1, 1, 1, 1, 1, 1, 1, 1, 1, 1, 1, 1, 1, 1, 1, 1, 1, 1, 1, 1, 1, 1, 1, 1, 1, 1, 1, 1, 1, 1, 1, 1, 1, 1, 1, 1, 1, 1, 1, 1, 1, 1, 1, 1, 1, 1, 1, 1, 1, 1, 1, 1, 1, 1, 1, 1, 1, 1, 1, 1, 1, 1, 1, 1, 1, 1, 1, 1, 1, 1, 1, 1, 1, 1, 1, 1, 1, 1, 1, 1, 1, 1, 1, 1, 1, 1, 1, 1, 1, 1, 1, 1, 1, 1, 1, 1, 1, 1, 1, 1, 1, 1, 1, 1, 1, 1, 1, 1, 1, 1, 1, 1, 1, 1, 1, 1, 1, 1, 1, 1, 1, 1, 1, 1, 1, 1, 1, 1, 1, 1, 1, 1, 1, 1, 1, 1, 1, 1, 1, 1, 1, 1, 1, 1, 1, 1, 1, 1, 1, 1, 1, 1, 1, 1, 1, 1, 1, 1, 1, 1, 1, 1, 1, 1, 1, 1, 1, 1, 1, 1, 1, 1, 1, 1, 1, 1, 1, 1, 1, 1, 1, 1, 1, 1, 1, 1, 1, 1, 1, 1, 1, 1, 1, 1, 1, 1, 1, 1, 1, 1, 1, 1, 1, 1, 1, 1, 1, 1, 1, 1, 1, 1, 1, 1, 1, 1, 1, 1, 1, 1, 1, 1, 1, 1, 1, 1, 1, 1, 1, 1, 1, 1, 1, 1, 1, 1, 1, 1, 1, 1, 1, 1, 1, 1, 1, 1, 1, 1, 1, 1, 1, 1, 1, 1, 1, 1, 1, 1, 1, 1, 1, 1, 1, 1, 1, 1, 1, 1, 1, 1, 1, 1, 1, 1, 1, 1, 1, 1, 1, 1, 1, 1, 1, 1, 1, 1, 1, 1, 1, 1, 1, 1, 1, 1, 1, 1, 1, 1, 1, 1, 1, 1, 1, 1, 1, 1, 1, 1, 1, 1, 1, 1, 1, 1, 1, 1, 1, 1, 1, 1, 1, 1, 1, 1, 1, 1, 1, 1, 1, 1, 1, 1, 1, 1, 1, 1, 1, 1, 1, 1, 1, 1, 1, 1, 1, 1, 1, 1, 1, 1, 1, 1, 1, 1, 1, 1, 1, 1, 1, 1, 1, 1, 1, 1, 1, 1, 1, 1, 1, 1, 1, 1, 1, 1, 1, 1, 1, 1, 1, 1, 1, 1, 1, 1, 1, 1, 1, 1, 1, 1, 1, 1, 1, 1, 1, 1, 1, 1, 1, 1, 1, 1, 1, 1, 1, 1, 1, 1, 1, 1, 1, 1, 1, 1, 1, 1, 1, 1, 1, 1, 1, 1, 1, 1, 1, 1, 1, 1, 1, 1, 1, 1, 1, 1, 1, 1, 1, 1, 1, 1, 1, 1, 1, 1, 1, 1, 1, 1, 1, 1, 1, 1, 1, 1, 1, 1, 1, 1, 1, 1, 1, 1, 1, 1, 1, 1, 1, 1, 1, 1, 1, 1, 1, 1, 1, 1, 1, 1, 1, 1, 1, 1, 1, 1, 1, 1, 1, 1, 1, 1, 1, 1, 1, 1, 1, 1, 1, 1, 1, 1, 1, 1, 1, 1, 1, 1, 1, 1, 1, 1, 1, 1, 1, 1, 1, 1, 1, 1, 1, 1, 1, 1, 1, 1, 1, 1, 1, 1, 1, 1, 1, 1, 1, 1, 1, 1, 1, 1, 1, 1, 1, 1, 1, 1, 1, 1, 1, 1, 1, 1, 1, 1, 1, 1, 1, 1, 1, 1, 1, 1, 1, 1, 1, 1, 1, 1, 1, 1, 1, 1, 1, 1, 1, 1, 1, 1, 1, 1, 1, 1, 1, 1, 1, 1, 1, 1, 1, 1, 1, 1, 1, 1, 1, 1, 1, 1, 1, 1, 1, 1, 1, 1, 1, 1, 1, 1, 1, 1, 1, 1, 1, 1, 1, 1, 1, 1, 1, 1, 1, 1, 1, 1, 1, 1, 1, 1, 1, 1, 1, 1, 1, 1, 1, 1, 1, 1, 1, 1, 1, 1, 1, 1, 1, 1, 1, 1, 1, 1, 1, 1, 1, 1, 1, 1, 1, 1, 1, 1, 1, 1, 1, 1, 1, 1, 1, 1, 1, 1, 1, 1, 1, 1, 1, 1, 1, 1, 1, 1, 1, 1, 1, 1, 1, 1, 1, 1, 1, 1, 1, 1, 1, 1, 1, 1, 1, 1, 1, 1, 1, 1, 1, 1, 1, 1, 1, 1, 1, 1, 1, 1, 1, 1, 1, 1, 1, 1, 1, 1, 1, 1, 1, 1, 1, 1, 1, 1, 1, 1, 1, 1, 1, 1, 1, 1, 1, 1, 1, 1, 1, 1, 1, 1, 1, 1, 1, 1, 1, 1, 1, 1, 1, 1, 1, 1, 1, 1, 1, 1, 1, 1, 1, 1, 1, 1, 1, 1, 1, 1, 1, 1, 1, 1, 1, 1, 1, 1, 1, 1, 1, 1, 1, 1, 1, 1, 1, 1, 1, 1, 1, 1, 1, 1, 1, 1, 1, 1, 1, 1, 1, 1, 1, 1, 1, 1, 1, 1, 1, 1, 1, 1, 1, 1, 1, 1, 1, 1, 1, 1, 1, 1, 1, 1, 1, 1, 1, 1, 1, 1, 1, 1, 1, 1, 1, 1, 1, 1, 1, 1, 1, 1, 1, 1, 1, 1, 1, 1, 1, 1, 1, 1, 1, 1, 1, 1, 1, 1, 1, 1, 1, 1, 1, 1, 1, 1, 1, 1, 1, 1, 1, 1, 1, 1, 1, 1, 1, 1, 1, 1, 1, 1, 1, 1, 1, 1, 1, 1, 1, 1, 1, 1, 1, 1, 1, 1, 1, 1, 1, 1, 1, 1, 1, 1, 1, 1, 1, 1, 1, 1, 1, 1, 1, 1, 1, 1, 1, 1, 1, 1, 1, 1, 1, 1, 1, 1, 1, 1, 1, 1, 1, 1, 1, 1, 1, 1, 1, 1, 1, 1, 1, 1, 1, 1, 1, 1, 1, 1, 1, 1, 1, 1, 1, 1, 1, 1, 1, 1, 1, 1, 1, 1, 1, 1, 1, 1, 1, 1, 1, 1, 1, 1, 1, 1, 1, 1, 1, 1, 1, 1, 1, 1, 1, 1, 1, 1, 1, 1, 1, 1, 1, 1, 1, 1, 1, 1, 1, 1, 1, 1, 1, 1, 1, 1, 1, 1, 1, 1, 1, 1, 1, 1, 1, 1, 1, 1, 1, 1, 1, 1, 1, 1, 1, 1, 1, 1, 1, 1, 1, 1, 1, 1, 1, 1, 1, 1, 1, 1, 1, 1, 1, 1, 1, 1, 1, 1, 1, 1, 1, 1, 1, 1, 1, 1, 1, 1, 1, 1, 1, 1, 1, 1, 1, 1, 1, 1, 1, 1, 1, 1, 1, 1, 1, 1, 1, 1, 1, 1, 1, 1, 1, 1, 1, 1, 1, 1, 1, 1, 1, 1, 1, 1, 1, 1, 1, 1, 1, 1, 1, 1, 1, 1, 1, 1, 1, 1, 1, 1, 1, 1, 1, 1, 1, 1, 1, 1, 1, 1, 1, 1, 1, 1, 1, 1, 1, 1, 1, 1, 1, 1, 1, 1, 1, 1, 1, 1, 1, 1, 1, 1, 1, 1, 1, 1, 1, 1, 1, 1, 1, 1, 1, 1, 1, 1, 1, 1, 1, 1, 1, 1, 1, 1, 1, 1, 1, 1, 1, 1, 1, 1, 1, 1, 1, 1, 1, 1, 1, 1, 1, 1, 1, 1, 1, 1, 1, 1, 1, 1, 1, 1, 1, 1, 1, 1, 1, 1, 1, 1, 1, 1, 1, 1, 1, 1, 1, 1, 1, 1, 1, 1, 1, 1, 1, 1, 1, 1, 1, 1, 1, 1, 1, 1, 1, 1, 1, 1, 1, 1, 1, 1, 1, 1, 1, 1, 1, 1, 1, 1, 1, 1, 1, 1, 1, 1, 1, 1, 1, 1, 1, 1, 1, 1, 1, 1, 1, 1, 1, 1, 1, 1, 1, 1, 1, 1, 1, 1, 1, 1, 1, 1, 1, 1, 1, 1, 1, 1, 1, 1, 1, 1, 1, 1, 1, 1, 1, 1, 1, 1, 1, 1, 1, 1, 1, 1, 1, 1, 1, 1, 1, 1, 1, 1, 1, 1, 1, 1, 1, 1, 1, 1, 1, 1, 1, 1, 1, 1, 1, 1, 1, 1, 1, 1, 1, 1, 1, 1, 1, 1, 1, 1, 1, 1, 1, 1, 1, 1, 1, 1, 1, 1, 1, 1, 1, 1, 1, 1, 1, 1, 1, 1, 1, 1, 1, 1, 1, 1, 1, 1, 1, 1, 1, 1, 1, 1, 1, 1, 1, 1, 1, 1, 1, 1, 1, 1, 1, 1, 1, 1, 1, 1, 1, 1, 1, 1, 1, 1, 1, 1, 1, 1, 1, 1, 1, 1, 1, 1, 1, 1, 1, 1, 1, 1, 1, 1, 1, 1, 1, 1, 1, 1, 1, 1, 1, 1, 1, 1, 1, 1, 1, 1, 1, 1, 1, 1, 1, 1, 1, 1, 1, 1, 1, 1, 1, 1, 1, 1, 1, 1, 1, 1, 1, 1, 1, 1, 1, 1, 1, 1, 1, 1, 1, 1, 1, 1, 1, 1, 1, 1, 1, 1, 1, 1, 1, 1, 1, 1, 1, 1, 1, 1, 1, 1, 1, 1, 1, 1, 1, 1, 1, 1, 1, 1, 1, 1, 1, 1, 1, 1, 1, 1, 1, 1, 1, 1, 1, 1, 1, 1, 1, 1, 1, 1, 1, 1, 1, 1, 1, 1, 1, 1, 1, 1, 1, 1, 1, 1, 1, 1, 1, 1, 1, 1, 1, 1, 1, 1, 1, 1, 1, 1, 1, 1, 1, 1, 1, 1, 1, 1, 1, 1, 1, 1, 1, 1, 1, 1, 1, 1, 1, 1, 1, 1, 1, 1, 1, 1, 1, 1, 1, 1, 1, 1, 1, 1, 1, 1, 1, 1, 1, 1, 1, 1, 1, 1, 1, 1, 1, 1, 1, 1, 1, 1, 1, 1, 1, 1, 1, 1, 1, 1, 1, 1, 1, 1, 1, 1, 1, 1, 1, 1, 1, 1, 1, 1, 1, 1, 1, 1, 1, 1, 1, 1, 1, 1, 1, 1, 1, 1];
T = [1, 1, 1, 1, 1, 1, 1, 1, 1, 1, 1, 1, 1, 1, 1, 1, 1, 1, 1, 1, 1, 1, 1, 1, 1, 1, 1, 1, 1, 1, 1, 1, 1, 1, 1, 1, 1, 1, 1, 1, 1, 1, 1, 1, 1, 1, 1, 1, 1, 1, 1, 1, 1, 1, 1, 1, 1, 1, 1, 1, 1, 1, 1, 1, 1, 1, 1, 1, 1, 1, 1, 1, 1, 1, 1, 1, 1, 1, 1, 1, 1, 1, 1, 1, 1, 1, 1, 1, 1, 1, 1, 1, 1, 1, 1, 1, 1, 1, 1, 1, 1, 1, 1, 1, 1, 1, 1, 1, 1, 1, 1, 1, 1, 1, 1, 1, 1, 1, 1, 1, 1, 1, 1, 1, 1, 1, 1, 1, 1, 1, 1, 1, 1, 1, 1, 1, 1, 1, 1, 1, 1, 1, 1, 1, 1, 1, 1, 1, 1, 1, 1, 1, 1, 1, 1, 1, 1, 1, 1, 1, 1, 1, 1, 1, 1, 1, 1, 1, 1, 1, 1, 1, 1, 1, 1, 1, 1, 1, 1, 1, 1, 1, 1, 1, 1, 1, 1, 1, 1, 1, 1, 1, 1, 1, 1, 1, 1, 1, 1, 1, 1, 1, 1, 1, 1, 1, 1, 1, 1, 1, 1, 1, 1, 1, 1, 1, 1, 1, 1, 1, 1, 1, 1, 1, 1, 1, 1, 1, 1, 1, 1, 1, 1, 1, 1, 1, 1, 1, 1, 1, 1, 1, 1, 1, 1, 1, 1, 1, 1, 1, 1, 1, 1, 1, 1, 1, 1, 1, 1, 1, 1, 1, 1, 1, 1, 1, 1, 1, 1, 1, 1, 1, 1, 1, 1, 1, 1, 1, 1, 1, 1, 1, 1, 1, 1, 1, 1, 1, 1, 1, 1, 1, 1, 1, 1, 1, 1, 1, 1, 1, 1, 1, 1, 1, 1, 1, 1, 1, 1, 1, 1, 1, 1, 1, 1, 1, 1, 1, 1, 1, 1, 1, 1, 1, 1, 1, 1, 1, 1, 1, 1, 1, 1, 1, 1, 1, 1, 1, 1, 1, 1, 1, 1, 1, 1, 1, 1, 1, 1, 1, 1, 1, 1, 1, 1, 1, 1, 1, 1, 1, 1, 1, 1, 1, 1, 1, 1, 1, 1, 1, 1, 1, 1, 1, 1, 1, 1, 1, 1, 1, 1, 1, 1, 1, 1, 1, 1, 1, 1, 1, 1, 1, 1, 1, 1, 1, 1, 1, 1, 1, 1, 1, 1, 1, 1, 1, 1, 1, 1, 1, 1, 1, 1, 1, 1, 1, 1, 1, 1, 1, 1, 1, 1, 1, 1, 1, 1, 1, 1, 1, 1, 1, 1, 1, 1, 1, 1, 1, 1, 1, 1, 1, 1, 1, 1, 1, 1, 1, 1, 1, 1, 1, 1, 1, 1, 1, 1, 1, 1, 1, 1, 1, 1, 1, 1, 1, 1, 1, 1, 1, 1, 1, 1, 1, 1, 1, 1, 1, 1, 1, 1, 1, 1, 1, 1, 1, 1, 1, 1, 1, 1, 1, 1, 1, 1, 1, 1, 1, 1, 1, 1, 1, 1, 1, 1, 1, 1, 1, 1, 1, 1, 1, 1, 1, 1, 1, 1, 1, 1, 1, 1, 1, 1, 1, 1, 1, 1, 1, 1, 1, 1, 1, 1, 1, 1, 1, 1, 1, 1, 1, 1, 1, 1, 1, 1, 1, 1, 1, 1, 1, 1, 1, 1, 1, 1, 1, 1, 1, 1, 1, 1, 1, 1, 1, 1, 1, 1, 1, 1, 1, 1, 1, 1, 1, 1, 1, 1, 1, 1, 1, 1, 1, 1, 1, 1, 1, 1, 1, 1, 1, 1, 1, 1, 1, 1, 1, 1, 1, 1, 1, 1, 1, 1, 1, 1, 1, 1, 1, 1, 1, 1, 1, 1, 1, 1, 1, 1, 1, 1, 1, 1, 1, 1, 1, 1, 1, 1, 1, 1, 1, 1, 1, 1, 1, 1, 1, 1, 1, 1, 1, 1, 1, 1, 1, 1, 1, 1, 1, 1, 1, 1, 1, 1, 1, 1, 1, 1, 1, 1, 1, 1, 1, 1, 1, 1, 1, 1, 1, 1, 1, 1, 1, 1, 1, 1, 1, 1, 1, 1, 1, 1, 1, 1, 1, 1, 1, 1, 1, 1, 1, 1, 1, 1, 1, 1, 1, 1, 1, 1, 1, 1, 1, 1, 1, 1, 1, 1, 1, 1, 1, 1, 1, 1, 1, 1, 1, 1, 1, 1, 1, 1, 1, 1, 1, 1, 1, 1, 1, 1, 1, 1, 1, 1, 1, 1, 1, 1, 1, 1, 1, 1, 1, 1, 1, 1, 1, 1, 1, 1, 1, 1, 1, 1, 1, 1, 1, 1, 1, 1, 1, 1, 1, 1, 1, 1, 1, 1, 1, 1, 1, 1, 1, 1, 1, 1, 1, 1, 1, 1, 1, 1, 1, 1, 1, 1, 1, 1, 1, 1, 1, 1, 1, 1, 1, 1, 1, 1, 1, 1, 1, 1, 1, 1, 1, 1, 1, 1, 1, 1, 1, 1, 1, 1, 1, 1, 1, 1, 1, 1, 1, 1, 1, 1, 1, 1, 1, 1, 1, 1, 1, 1, 1, 1, 1, 1, 1, 1, 1, 1, 1, 1, 1, 1, 1, 1, 1, 1, 1, 1, 1, 1, 1, 1, 1, 1, 1, 1, 1, 1, 1, 1, 1, 1, 1, 1, 1, 1, 1, 1, 1, 1, 1, 1, 1, 1, 1, 1, 1, 1, 1, 1, 1, 1, 1, 1, 1, 1, 1, 1, 1, 1, 1, 1, 1, 1, 1, 1, 1, 1, 1, 1, 1, 1, 1, 1, 1, 1, 1, 1, 1, 1, 1, 1, 1, 1, 1, 1, 1, 1, 1, 1, 1, 1, 1, 1, 1, 1, 1, 1, 1, 1, 1, 1, 1, 1, 1, 1, 1, 1, 1, 1, 1, 1, 1, 1, 1, 1, 1, 1, 1, 1, 1, 1, 1, 1, 1, 1, 1, 1, 1, 1, 1, 1, 1, 1, 1, 1, 1, 1, 1, 1, 1, 1, 1, 1, 1, 1, 1, 1, 1, 1, 1, 1, 1, 1, 1, 1, 1, 1, 1, 1, 1, 1, 1, 1, 1, 1, 1, 1, 1, 1, 1, 1, 1, 1, 1, 1, 1, 1, 1, 1, 1, 1, 1, 1, 1, 1, 1, 1, 1, 1, 1, 1, 1, 1, 1, 1, 1, 1, 1, 1, 1, 1, 1, 1, 1, 1, 1, 1, 1, 1, 1, 1, 1, 1, 1, 1, 1, 1, 1, 1, 1, 1, 1, 1, 1, 1, 1, 1, 1, 1, 1, 1, 1, 1, 1, 1, 1, 1, 1, 1, 1, 1, 1, 1, 1, 1, 1, 1, 1, 1, 1, 1, 1, 1, 1, 1, 1, 1, 1, 1, 1, 1, 1, 1, 1, 1, 1, 1, 1, 1, 1, 1, 1, 1, 1, 1, 1, 1, 1, 1, 1, 1, 1, 1, 1, 1, 1, 1, 1, 1, 1, 1, 1, 1, 1, 1, 1, 1, 1, 1, 1, 1, 1, 1, 1, 1, 1, 1, 1, 1, 1, 1, 1, 1, 1, 1, 1, 1, 1, 1, 1, 1, 1, 1, 1, 1, 1, 1, 1, 1, 1, 1, 1, 1, 1, 1, 1, 1, 1, 1, 1, 1, 1, 1, 1, 1, 1, 1, 1, 1, 1, 1, 1, 1, 1, 1, 1, 1, 1, 1, 1, 1, 1, 1, 1, 1, 1, 1, 1, 1, 1, 1, 1, 1, 1, 1, 1, 1, 1, 1, 1, 1, 1, 1, 1, 1, 1, 1, 1, 1, 1, 1, 1, 1, 1, 1, 1, 1, 1, 1, 1, 1, 1, 1, 1, 1, 1, 1, 1, 1, 1, 1, 1, 1, 1, 1, 1, 1, 1, 1, 1, 1, 1, 1, 1, 1, 1, 1, 1, 1, 1, 1, 1, 1, 1, 1, 1, 1, 1, 1, 1, 1, 1, 1, 1, 1, 1, 1, 1, 1, 1, 1, 1, 1, 1, 1, 1, 1, 1, 1, 1, 1, 1, 1, 1, 1, 1, 1, 1, 1, 1, 1, 1, 1, 1, 1, 1, 1, 1, 1, 1, 1, 1, 1, 1, 1, 1, 1, 1, 1, 1, 1, 1, 1, 1, 1, 1, 1, 1, 1, 1, 1, 1, 1, 1, 1, 1, 1, 1, 1, 1, 1, 1, 1, 1, 1, 1, 1, 1, 1, 1, 1, 1, 1, 1, 1, 1, 1, 1, 1, 1, 1, 1, 1, 1, 1, 1, 1, 1, 1, 1, 1, 1, 1, 1, 1, 1, 1, 1, 1, 1, 1, 1, 1, 1, 1, 1, 1, 1, 1, 1, 1, 1, 1, 1, 1, 1, 1, 1, 1, 1, 1, 1, 1, 1, 1, 1, 1, 1, 1, 1, 1, 1, 1, 1, 1, 1, 1, 1, 1, 1, 1, 1, 1, 1, 1, 1, 1, 1, 1, 1, 1, 1, 1, 1, 1, 1, 1, 1, 1, 1, 1, 1, 1, 1, 1, 1, 1, 1, 1, 1, 1, 1, 1, 1, 1, 1, 1, 1, 1, 1, 1, 1, 1, 1, 1, 1, 1, 1, 1, 1, 1, 1, 1, 1, 1, 1, 1, 1, 1, 1, 1, 1, 1, 1, 1, 1, 1, 1, 1, 1, 1, 1, 1, 1, 1, 1, 1, 1, 1, 1, 1, 1, 1, 1, 1, 1, 1, 1, 1, 1, 1, 1, 1, 1, 1, 1, 1, 1, 1, 1, 1, 1, 1, 1, 1, 1, 1, 1, 1, 1, 1, 1, 1, 1, 1, 1, 1, 1, 1, 1, 1, 1, 1, 1, 1, 1, 1, 1, 1, 1, 1, 1, 1, 1, 1, 1, 1, 1, 1, 1, 1, 1, 1, 1, 1, 1, 1, 1, 1, 1, 1, 1, 1, 1, 1, 1, 1, 1, 1, 1, 1, 1, 1, 1, 1, 1, 1, 1, 1, 1, 1, 1, 1, 1, 1, 1, 1, 1, 1, 1, 1, 1, 1, 1, 1, 1, 1, 1, 1, 1, 1, 1, 1, 1, 1, 1, 1, 1, 1, 1, 1, 1, 1, 1, 1, 1, 1, 1, 1, 1, 1, 1, 1, 1, 1, 1, 1, 1, 1, 1, 1, 1, 1, 1, 1, 1, 1, 1, 1, 1, 1, 1, 1, 1, 1, 1, 1, 1, 1, 1, 1, 1, 1, 1, 1, 1, 1, 1, 1, 1, 1, 1, 1, 1, 1, 1, 1, 1, 1, 1, 1, 1, 1, 1, 1, 1, 1, 1, 1, 1, 1, 1, 1, 1, 1, 1, 1, 1, 1, 1, 1, 1, 1, 1, 1, 1, 1, 1, 1, 1, 1, 1, 1, 1, 1, 1, 1, 1, 1, 1, 1, 1, 1, 1, 1, 1, 1, 1, 1, 1, 1, 1, 1, 1, 1, 1, 1, 1, 1, 1, 1, 1, 1, 1, 1, 1, 1, 1, 1, 1, 1, 1, 1, 1, 1, 1, 1, 1, 1, 1, 1, 1, 1, 1, 1, 1, 1, 1, 1, 1, 1, 1, 1, 1, 1, 1, 1, 1, 1, 1, 1, 1, 1, 1, 1, 1, 1, 1, 1, 1, 1, 1];
Lower_Bound = [0, 1, 2, 3, 4, 5, 6, 7, 8, 9, 10, 11, 12, 13, 18, 19, 20, 21, 42, 39, 38, 37, 36, 35, 34, 35, 34, 35, 36, 37, 38, 39, 40, 41, 42, 43, 44, 1, 2, 3, 4, 5, 8, 9, 10, 9, 10, 11, 12, 13, 16, 17, 18, 19, 20, 41, 40, 39, 38, 37, 32, 33, 32, 33, 34, 35, 36, 37, 38, 39, 40, 41, 44, 45, 46, 4, 3, 4, 5, 6, 7, 8, 11, 12, 11, 12, 13, 14, 15, 16, 17, 18, 21, 22, 23, 40, 39, 30, 31, 30, 31, 32, 35, 36, 37, 38, 39, 40, 41, 42, 43, 44, 45, 7, 6, 5, 6, 7, 8, 9, 12, 13, 14, 13, 14, 15, 16, 17, 18, 19, 20, 21, 22, 31, 30, 29, 28, 29, 30, 31, 32, 37, 36, 37, 38, 39, 40, 41, 42, 45, 46, 8, 7, 8, 7, 8, 9, 10, 11, 12, 13, 14, 15, 16, 17, 20, 19, 20, 21, 22, 23, 24, 25, 26, 27, 30, 31, 34, 33, 34, 35, 36, 37, 38, 39, 40, 43, 44, 45, 9, 10, 9, 10, 9, 10, 11, 12, 13, 14, 15, 16, 17, 18, 19, 20, 21, 22, 23, 24, 25, 26, 27, 28, 29, 30, 35, 34, 35, 38, 37, 40, 39, 40, 41, 46, 45, 46, 12, 11, 12, 11, 12, 11, 12, 13, 14, 15, 16, 17, 18, 19, 20, 21, 22, 23, 24, 25, 26, 27, 28, 29, 30, 31, 32, 33, 34, 39, 38, 39, 40, 41, 42, 45, 44, 45, 13, 14, 13, 18, 13, 14, 13, 14, 15, 16, 17, 18, 19, 20, 21, 22, 23, 24, 25, 26, 27, 28, 33, 32, 33, 34, 33, 34, 35, 36, 37, 38, 39, 40, 41, 42, 43, 44, 16, 15, 16, 17, 16, 15, 16, 15, 16, 17, 18, 19, 20, 21, 22, 23, 24, 25, 26, 27, 28, 29, 30, 31, 32, 35, 36, 35, 36, 37, 38, 39, 40, 41, 42, 43, 44, 45, 17, 18, 17, 18, 17, 18, 19, 18, 17, 18, 19, 20, 21, 22, 23, 24, 25, 26, 27, 28, 29, 30, 31, 32, 33, 34, 35, 36, 37, 38, 39, 40, 41, 42, 47, 46, 45, 50, 20, 19, 20, 19, 20, 19, 20, 19, 20, 19, 20, 21, 22, 23, 24, 25, 26, 27, 28, 29, 30, 31, 32, 33, 34, 35, 36, 37, 38, 39, 40, 41, 48, 49, 48, 47, 48, 49, 23, 22, 21, 22, 21, 22, 21, 26, 23, 22, 21, 22, 23, 24, 25, 26, 27, 28, 29, 30, 31, 32, 33, 34, 35, 36, 37, 38, 39, 40, 41, 44, 47, 46, 49, 48, 49, 50, 24, 23, 24, 23, 24, 23, 24, 25, 26, 25, 24, 23, 24, 25, 26, 27, 28, 29, 30, 31, 32, 33, 34, 35, 36, 37, 38, 43, 42, 41, 42, 43, 44, 45, 46, 47, 48, 49, 25, 26, 25, 26, 25, 26, 25, 26, 27, 26, 25, 26, 27, 28, 29, 30, 29, 32, 31, 32, 33, 34, 35, 42, 41, 40, 39, 40, 41, 42, 43, 44, 45, 46, 47, 48, 49, 50, 28, 27, 28, 27, 28, 29, 28, 27, 28, 29, 28, 27, 28, 29, 38, 39, 34, 33, 34, 33, 34, 35, 36, 37, 38, 39, 40, 41, 44, 43, 44, 45, 46, 47, 48, 49, 50, 51, 29, 30, 29, 30, 29, 30, 29, 30, 29, 30, 29, 30, 31, 32, 37, 36, 35, 36, 35, 36, 37, 38, 37, 38, 39, 40, 41, 42, 43, 44, 45, 46, 47, 48, 49, 50, 51, 52, 32, 31, 32, 33, 32, 31, 32, 31, 32, 31, 32, 31, 32, 33, 38, 37, 38, 37, 38, 37, 38, 39, 40, 39, 42, 41, 42, 43, 44, 45, 46, 47, 48, 49, 50, 51, 52, 53, 33, 34, 35, 34, 33, 34, 35, 34, 33, 34, 33, 34, 35, 36, 37, 38, 43, 42, 41, 40, 39, 40, 41, 42, 43, 44, 43, 44, 45, 46, 47, 50, 49, 50, 51, 52, 53, 54, 35, 36, 35, 36, 35, 36, 37, 36, 35, 36, 37, 38, 37, 38, 39, 40, 41, 42, 41, 42, 41, 42, 43, 44, 45, 46, 45, 46, 47, 48, 49, 50, 51, 58, 57, 56, 55];
Upper_Bound = [0, 1, 2, 3, 4, 5, 6, 7, 8, 9, 10, 11, 12, 13, 18, 19, 20, 21, 42, 39, 38, 37, 36, 35, 34, 35, 34, 35, 36, 37, 38, 39, 40, 41, 42, 43, 44, 1, 2, 3, 4, 5, 8, 9, 10, 9, 10, 11, 12, 13, 16, 17, 18, 19, 20, 41, 40, 39, 38, 37, 32, 33, 32, 33, 34, 35, 36, 37, 38, 39, 40, 41, 44, 45, 46, 4, 3, 4, 5, 6, 7, 8, 11, 12, 11, 12, 13, 14, 15, 16, 17, 18, 21, 22, 23, 40, 39, 30, 31, 30, 31, 32, 35, 36, 37, 38, 39, 40, 41, 42, 43, 44, 45, 7, 6, 5, 6, 7, 8, 9, 12, 13, 14, 13, 14, 15, 16, 17, 18, 19, 20, 21, 22, 31, 30, 29, 28, 29, 30, 31, 32, 37, 36, 37, 38, 39, 40, 41, 42, 45, 46, 8, 7, 8, 7, 8, 9, 10, 11, 12, 13, 14, 15, 16, 17, 20, 19, 20, 21, 22, 23, 24, 25, 26, 27, 30, 31, 34, 33, 34, 35, 36, 37, 38, 39, 40, 43, 44, 45, 9, 10, 9, 10, 9, 10, 11, 12, 13, 14, 15, 16, 17, 18, 19, 20, 21, 22, 23, 24, 25, 26, 27, 28, 29, 30, 35, 34, 35, 38, 37, 40, 39, 40, 41, 46, 45, 46, 12, 11, 12, 11, 12, 11, 12, 13, 14, 15, 16, 17, 18, 19, 20, 21, 22, 23, 24, 25, 26, 27, 28, 29, 30, 31, 32, 33, 34, 39, 38, 39, 40, 41, 42, 45, 44, 45, 13, 14, 13, 18, 13, 14, 13, 14, 15, 16, 17, 18, 19, 20, 21, 22, 23, 24, 25, 26, 27, 28, 33, 32, 33, 34, 33, 34, 35, 36, 37, 38, 39, 40, 41, 42, 43, 44, 16, 15, 16, 17, 16, 15, 16, 15, 16, 17, 18, 19, 20, 21, 22, 23, 24, 25, 26, 27, 28, 29, 30, 31, 32, 35, 36, 35, 36, 37, 38, 39, 40, 41, 42, 43, 44, 45, 17, 18, 17, 18, 17, 18, 19, 18, 17, 18, 19, 20, 21, 22, 23, 24, 25, 26, 27, 28, 29, 30, 31, 32, 33, 34, 35, 36, 37, 38, 39, 40, 41, 42, 47, 46, 45, 50, 20, 19, 20, 19, 20, 19, 20, 19, 20, 19, 20, 21, 22, 23, 24, 25, 26, 27, 28, 29, 30, 31, 32, 33, 34, 35, 36, 37, 38, 39, 40, 41, 48, 49, 48, 47, 48, 49, 23, 22, 21, 22, 21, 22, 21, 26, 23, 22, 21, 22, 23, 24, 25, 26, 27, 28, 29, 30, 31, 32, 33, 34, 35, 36, 37, 38, 39, 40, 41, 44, 47, 46, 49, 48, 49, 50, 24, 23, 24, 23, 24, 23, 24, 25, 26, 25, 24, 23, 24, 25, 26, 27, 28, 29, 30, 31, 32, 33, 34, 35, 36, 37, 38, 43, 42, 41, 42, 43, 44, 45, 46, 47, 48, 49, 25, 26, 25, 26, 25, 26, 25, 26, 27, 26, 25, 26, 27, 28, 29, 30, 29, 32, 31, 32, 33, 34, 35, 42, 41, 40, 39, 40, 41, 42, 43, 44, 45, 46, 47, 48, 49, 50, 28, 27, 28, 27, 28, 29, 28, 27, 28, 29, 28, 27, 28, 29, 38, 39, 34, 33, 34, 33, 34, 35, 36, 37, 38, 39, 40, 41, 44, 43, 44, 45, 46, 47, 48, 49, 50, 51, 29, 30, 29, 30, 29, 30, 29, 30, 29, 30, 29, 30, 31, 32, 37, 36, 35, 36, 35, 36, 37, 38, 37, 38, 39, 40, 41, 42, 43, 44, 45, 46, 47, 48, 49, 50, 51, 52, 32, 31, 32, 33, 32, 31, 32, 31, 32, 31, 32, 31, 32, 33, 38, 37, 38, 37, 38, 37, 38, 39, 40, 39, 42, 41, 42, 43, 44, 45, 46, 47, 48, 49, 50, 51, 52, 53, 33, 34, 35, 34, 33, 34, 35, 34, 33, 34, 33, 34, 35, 36, 37, 38, 43, 42, 41, 40, 39, 40, 41, 42, 43, 44, 43, 44, 45, 46, 47, 50, 49, 50, 51, 52, 53, 54, 35, 36, 35, 36, 35, 36, 37, 36, 35, 36, 37, 38, 37, 38, 39, 40, 41, 42, 41, 42, 41, 42, 43, 44, 45, 46, 45, 46, 47, 48, 49, 50, 51, 58, 57, 56, 55];
Start = 1;
End = 720;
Time = 55;
